p cnf 248
-7 -68
-8 -71
-9 -74
-10 -77
-11 -80
-12 -83
-13 -85
-14 -87
-15 -89
-16 -91
-17 -93
-18 -95
-19 96
-20 -11
-20 12
11 -12 20
-21 11
-21 -12
-11 12 21
-22 -20
-22 -21
20 21 22
-23 -1
-23 -2
1 2 23
-24 -3
-24 -4
3 4 24
-25 -5
-25 -6
5 6 25
-26 23
-26 24
-23 -24 26
-27 25
-27 26
-25 -26 27
-28 -13
-28 -14
13 14 28
-29 -15
-29 -16
15 16 29
-30 -17
-30 -18
17 18 30
-31 28
-31 29
-28 -29 31
-32 30
-32 31
-30 -31 32
-33 13
-33 -22
-13 22 33
-34 -13
-34 22
13 -22 34
-35 -33
-35 -34
33 34 35
-36 7
-36 14
-7 -14 36
-37 -7
-37 -14
7 14 37
-38 -36
-38 -37
36 37 38
-39 8
-39 15
-8 -15 39
-40 -8
-40 -15
8 15 40
-41 -39
-41 -40
39 40 41
-42 9
-42 16
-9 -16 42
-43 -9
-43 -16
9 16 43
-44 -42
-44 -43
42 43 44
-45 10
-45 17
-10 -17 45
-46 -10
-46 -17
10 17 46
-47 -45
-47 -46
45 46 47
-48 11
-48 18
-11 -18 48
-49 -11
-49 -18
11 18 49
-50 -48
-50 -49
48 49 50
-51 -35
-51 -38
35 38 51
-52 -41
-52 -44
41 44 52
-53 -47
-53 -50
47 50 53
-54 51
-54 52
-51 -52 54
-55 53
-55 54
-53 -54 55
-56 -32
-56 55
32 -55 56
-57 19
-57 56
-19 -56 57
-58 27
-58 57
-27 -57 58
-59 -7
-59 22
7 -22 59
-60 -8
-60 -9
8 9 60
-61 -10
-61 -11
10 11 61
-62 59
-62 60
-59 -60 62
-63 61
-63 62
-61 -62 63
-64 -32
-64 63
32 -63 64
-65 27
-65 -56
-27 56 65
-66 1
-66 -27
-1 27 66
-67 -22
-67 27
22 -27 67
-68 -66
-68 -67
66 67 68
-69 2
-69 -27
-2 27 69
-70 7
-70 27
-7 -27 70
-71 -69
-71 -70
69 70 71
-72 3
-72 -27
-3 27 72
-73 8
-73 27
-8 -27 73
-74 -72
-74 -73
72 73 74
-75 4
-75 -27
-4 27 75
-76 9
-76 27
-9 -27 76
-77 -75
-77 -76
75 76 77
-78 5
-78 -27
-5 27 78
-79 10
-79 27
-10 -27 79
-80 -78
-80 -79
78 79 80
-81 6
-81 -27
-6 27 81
-82 11
-82 27
-11 -27 82
-83 -81
-83 -82
81 82 83
-84 13
-84 27
-13 -27 84
-85 -66
-85 -84
66 84 85
-86 14
-86 27
-14 -27 86
-87 -69
-87 -86
69 86 87
-88 15
-88 27
-15 -27 88
-89 -72
-89 -88
72 88 89
-90 16
-90 27
-16 -27 90
-91 -75
-91 -90
75 90 91
-92 17
-92 27
-17 -27 92
-93 -78
-93 -92
78 92 93
-94 18
-94 27
-18 -27 94
-95 -81
-95 -94
81 94 95
-96 -19
-96 65
19 -65 96
-97 -58
-97 -64
58 64 97
-97
